20
63416 128319
838949 1601667
231705 475634
278430 531575
579076 1251993
542663 1108634
544786 1039759
226831 468728
362836 698158
192630 372342
543297 1161048
194244 403961
668225 1362470
858827 1773653
306890 580301
914752 1947699
243468 495773
983177 2007127
262040 472069
115758 245042
4476000